0 95 176 231 271 477 514 636 1040 1142 
0 93 163 319 383 490 646 691 768 823 
0 85 122 453 477 726 809 898 929 1162 
0 80 187 250 283 555 614 652 1121 1162 
0 157 231 340 357 514 797 929 1009 1182 
85 197 242 300 521 550 646 856 1090 1189 
80 150 242 377 464 563 671 866 962 990 
0 95 300 385 563 644 757 796 855 1065 
0 60 162 271 550 614 898 991 1040 1109 
91 163 385 464 644 726 797 991 1109 1142 
